--- Job hw8-1.gms Start 08/02/24 17:59:41 47.2.0 54a8429d LEX-LEG x86 64bit/Linux
--- Applying:
    /opt/gams/gams47.2_linux_x64_64_sfx/gmsprmun.txt
--- GAMS Parameters defined
    Input /home/carlitos/Documents/School/Summer2024/cs735_optimization_techniques_and_applications/homework8/gams/hw8-1.gms
    Output /home/carlitos/Documents/School/Summer2024/cs735_optimization_techniques_and_applications/homework8/output/hw8-1.lst
    ScrDir /home/carlitos/Documents/School/Summer2024/cs735_optimization_techniques_and_applications/homework8/225a/
    SysDir /opt/gams/gams47.2_linux_x64_64_sfx/
Licensee: University of Wisconsin-Whitewater             G240417|0002AO-GEN
          COMPSCI  735 - 01  OPTIMIZATION: TECHNIQUES AND APPLICATIODCE1755
          /opt/gams/gams47.2_linux_x64_64_sfx/gamslice.txt
          License Admin: Athula Gunawardena, gunawara@uww.edu              
          Course license for use within the course and related course work
          The evaluation period of the license will expire on Aug 15, 2024
Processor information: 1 socket(s), 2 core(s), and 4 thread(s) available
GAMS 47.2.0   Copyright (C) 1987-2024 GAMS Development. All rights reserved
--- Starting compilation
--- hw8-1.gms(98) 3 Mb
--- Starting execution: elapsed 0:00:00.021
--- hw8-1.gms(71) 4 Mb
--- Generating MIP model prob2
--- hw8-1.gms(72) 4 Mb
---   1,031 rows  101 columns  3,281 non-zeroes
---   100 discrete-columns
--- Range statistics (absolute non-zero finite values)
--- RHS       [min, max] : [ 1.000E+00, 2.000E+00] - Zero values observed as well
--- Bound     [min, max] : [ 1.000E+00, 1.000E+00] - Zero values observed as well
--- Matrix    [min, max] : [ 1.000E+00, 2.734E+03]
--- Executing CPLEX (Solvelink=2): elapsed 0:00:00.025

IBM ILOG CPLEX   47.2.0 54a8429d Jul 1, 2024           LEG x86 64bit/Linux    

--- GAMS/CPLEX licensed for continuous and discrete problems.
--- GMO setup time: 0.00s
--- Space for names approximately 0.04 Mb
--- Use option 'names no' to turn use of names off
--- GMO memory 0.63 Mb (peak 0.63 Mb)
--- Dictionary memory 0.00 Mb
--- Cplex 22.1.1.0 link memory 0.01 Mb (peak 0.09 Mb)
--- Starting Cplex

Version identifier: 22.1.1.0 | 2022-11-28 | 9160aff4d
CPXPARAM_Advance                                 0
CPXPARAM_MIP_Display                             4
CPXPARAM_MIP_Pool_Capacity                       0
CPXPARAM_MIP_Tolerances_AbsMIPGap                0
CPXPARAM_MIP_Tolerances_MIPGap                   0
Generic callback                                 0x50
Found incumbent of value 17410.000000 after 0.00 sec. (0.04 ticks)
Tried aggregator 1 time.
MIP Presolve eliminated 770 rows and 11 columns.
Reduced MIP has 260 rows, 90 columns, and 900 nonzeros.
Reduced MIP has 90 binaries, 0 generals, 0 SOSs, and 0 indicators.
Presolve time = 0.00 sec. (1.09 ticks)
Probing time = 0.00 sec. (0.40 ticks)
Tried aggregator 1 time.
Detecting symmetries...
Reduced MIP has 260 rows, 90 columns, and 900 nonzeros.
Reduced MIP has 90 binaries, 0 generals, 0 SOSs, and 0 indicators.
Presolve time = 0.00 sec. (0.60 ticks)
Probing time = 0.00 sec. (0.40 ticks)
Clique table members: 20.
MIP emphasis: balance optimality and feasibility.
MIP search method: dynamic search.
Parallel mode: deterministic, using up to 4 threads.
Parallel mode: deterministic, using up to 1 threads for parallel tasks at root LP.
Tried aggregator 1 time.
No LP presolve or aggregator reductions.
Presolve time = 0.00 sec. (0.10 ticks)
Initializing dual steep norms . . .

Iteration log . . .
Iteration:     1   Dual objective     =          5112.000000
Root relaxation solution time = 0.00 sec. (0.39 ticks)

        Nodes                                         Cuts/
   Node  Left     Objective  IInf  Best Integer    Best Bound    ItCnt     Gap

*     0+    0                        17410.0000        0.0000           100.00%
Found incumbent of value 17410.000000 after 0.01 sec. (3.29 ticks)
*     0+    0                        13525.0000        0.0000           100.00%
Found incumbent of value 13525.000000 after 0.01 sec. (3.29 ticks)
*     0+    0                        12851.0000        0.0000           100.00%
Found incumbent of value 12851.000000 after 0.01 sec. (3.29 ticks)
*     0     0      integral     0     6234.0000     6234.0000       12    0.00%
Elapsed time = 0.01 sec. (3.32 ticks, tree = 0.00 MB)
Found incumbent of value 6234.000000 after 0.01 sec. (3.32 ticks)

Root node processing (before b&c):
  Real time             =    0.01 sec. (3.32 ticks)
Parallel b&c, 4 threads:
  Real time             =    0.00 sec. (0.00 ticks)
  Sync time (average)   =    0.00 sec.
  Wait time (average)   =    0.00 sec.
                          ------------
Total (root+branch&cut) =    0.01 sec. (3.32 ticks)

--- MIP status (101): integer optimal solution.
--- Cplex Time: 0.01sec (det. 3.32 ticks)

--- Returning a primal only solution to GAMS (marginals all set to NA).
--- Fixing integer variables and solving final LP...

Version identifier: 22.1.1.0 | 2022-11-28 | 9160aff4d
CPXPARAM_Advance                                 2
CPXPARAM_MIP_Display                             4
CPXPARAM_MIP_Pool_Capacity                       0
CPXPARAM_MIP_Tolerances_AbsMIPGap                0
CPXPARAM_MIP_Tolerances_MIPGap                   0
Tried aggregator 1 time.
LP Presolve eliminated 1030 rows and 101 columns.
All rows and columns eliminated.
Presolve time = 0.00 sec. (0.34 ticks)

--- Fixed MIP status (1): optimal.
--- Cplex Time: 0.00sec (det. 0.60 ticks)


Proven optimal solution
MIP Solution:         6234.000000    (12 iterations, 0 nodes)
Final Solve:          6234.000000    (0 iterations)

Best possible:        6234.000000
Absolute gap:            0.000000
Relative gap:            0.000000

--- Reading solution for model prob2
--- Executing after solve: elapsed 0:00:00.058
--- hw8-1.gms(98) 4 Mb
--- Putfile hw8_1results /home/carlitos/Documents/School/Summer2024/cs735_optimization_techniques_and_applications/homework8/hw8_1results.txt
*** Status: Normal completion
--- Job hw8-1.gms Stop 08/02/24 17:59:41 elapsed 0:00:00.059
